NAME: random-4-12631
TYPE: TSP
COMMENT: size=4 seed=12631
DIMENSION: 10
EDGE_WEIGHT_TYPE: EUC_2D
NODE_COORD_SECTION
+0 217 452
-0 217 452
+1 167 677
-1 946 640
+2 153 897
-2 572 795
+3 187 410
-3 72 963
+4 718 240
-4 266 104
PRECEDENCE_SECTION
+0 -0
+1 -1
+2 -2
+3 -3
+4 -4
EOF
